instances/knapsack/discrete/knapsack_130_10.lp
\ Model knapsack_130_10
\ LP format - for model browsing. Use MPS format to capture full model detail.
\ Signature: 0x8c644a484ac146d4
Minimize
  - 81 x[0] - 66 x[1] - 83 x[2] - 47 x[3] - 73 x[4] - 8 x[5] - 77 x[6]
   - 79 x[7] - 18 x[8] - 98 x[9] - 66 x[10] - 30 x[11] - 22 x[12]
   - 49 x[13] - 38 x[14] - 39 x[15] - 65 x[16] - 57 x[17] - 78 x[18]
   - 93 x[19] - 25 x[20] - 46 x[21] - 7 x[22] - 59 x[23] - 44 x[24]
   - 30 x[25] - 79 x[26] - 35 x[27] - 17 x[28] - 64 x[29] - 24 x[30]
   - 23 x[31] - 63 x[32] - 18 x[33] - 11 x[34] - 56 x[35] - 60 x[36]
   - 22 x[37] - 6 x[38] - 35 x[39] - 79 x[40] - 81 x[41] - x[42] - 14 x[43]
   - 50 x[44] - 34 x[45] - 48 x[46] - 32 x[47] - 52 x[48] - 65 x[49]
   - 78 x[50] - 90 x[51] - 94 x[52] - 16 x[53] - 71 x[54] - 97 x[55]
   - 78 x[56] - 51 x[57] - 59 x[58] - 86 x[59] - 47 x[60] - 17 x[61]
   - 25 x[62] - 57 x[63] - 2 x[64] - 56 x[65] - 72 x[66] - 65 x[67]
   - 32 x[68] - 77 x[69] - 4 x[70] - 78 x[71] - 88 x[72] - 97 x[73]
   - 54 x[74] - 65 x[75] - 53 x[76] - 44 x[77] - 35 x[78] - 23 x[79]
   - 58 x[80] - 45 x[81] - 69 x[82] - 13 x[83] - 8 x[84] - 20 x[85]
   - 77 x[86] - 18 x[87] - 31 x[88] - 98 x[89] - 65 x[90] - 45 x[91]
   - 53 x[92] - 40 x[93] - 91 x[94] - 90 x[95] - 72 x[96] - 51 x[97]
   - 24 x[98] - 44 x[99] - 84 x[100] - 61 x[101] - 86 x[102] - 57 x[103]
   - 22 x[104] - 90 x[105] - 45 x[106] - 44 x[107] - 21 x[108] - 36 x[109]
   - 61 x[110] - 5 x[111] - 41 x[112] - 99 x[113] - 17 x[114] - 72 x[115]
   - 98 x[116] - 76 x[117] - 49 x[118] - 54 x[119] - 33 x[120] - 90 x[121]
   - 65 x[122] - 14 x[123] - 71 x[124] - 20 x[125] - 48 x[126] - 33 x[127]
   - 71 x[128] - 4 x[129]
Subject To
 primal_upper: 15 x[0] + 83 x[1] + 5 x[2] + 82 x[3] + 39 x[4] + 13 x[5]
   + 96 x[6] + 27 x[7] + 28 x[8] + 97 x[9] + 27 x[10] + 14 x[11] + 27 x[12]
   + 63 x[13] + 68 x[14] + 28 x[15] + 28 x[16] + 91 x[17] + 12 x[18]
   + 97 x[19] + 84 x[20] + 67 x[21] + 15 x[22] + 34 x[23] + 44 x[24]
   + 99 x[25] + 81 x[26] + 43 x[27] + 29 x[28] + 78 x[29] + 93 x[30]
   + 27 x[31] + 51 x[32] + 28 x[33] + 11 x[34] + 44 x[35] + 51 x[36]
   + 52 x[37] + 23 x[38] + 46 x[39] + 34 x[40] + 45 x[41] + 49 x[42]
   + 49 x[43] + 26 x[44] + 38 x[45] + 93 x[46] + 45 x[47] + 54 x[48]
   + 11 x[49] + 42 x[50] + 75 x[51] + 76 x[52] + 91 x[53] + 28 x[54]
   + 79 x[55] + 32 x[56] + 78 x[57] + 67 x[58] + 45 x[59] + 16 x[60]
   + 74 x[61] + 51 x[62] + 38 x[63] + 55 x[64] + 75 x[65] + 64 x[66]
   + 90 x[67] + 3 x[68] + 77 x[69] + 77 x[70] + 97 x[71] + 5 x[72]
   + 18 x[73] + 51 x[74] + 60 x[75] + 18 x[76] + 50 x[77] + 80 x[78]
   + 18 x[79] + 61 x[80] + 77 x[81] + 26 x[82] + 65 x[83] + 77 x[84]
   + 65 x[85] + 39 x[86] + 31 x[87] + 5 x[88] + 30 x[89] + 16 x[90]
   + 72 x[91] + 16 x[92] + 51 x[93] + 3 x[94] + 56 x[95] + 100 x[96]
   + 28 x[97] + 55 x[98] + 3 x[99] + 8 x[100] + 63 x[101] + 5 x[102]
   + 31 x[103] + 84 x[104] + 17 x[105] + 34 x[106] + 46 x[107] + 90 x[108]
   + 52 x[109] + 14 x[110] + 86 x[111] + 92 x[112] + 24 x[113] + 72 x[114]
   + 86 x[115] + 38 x[116] + 16 x[117] + 52 x[118] + 52 x[119] + 7 x[120]
   + 28 x[121] + 95 x[122] + 78 x[123] + 40 x[124] + 22 x[125] + 51 x[126]
   + 99 x[127] + 6 x[128] + 86 x[129] + 1.5 r[0] + 8.3 r[1] + 0.5 r[2]
   + 8.2 r[3] + 3.9 r[4] + 1.3 r[5] + 9.6 r[6] + 2.7 r[7] + 2.8 r[8]
   + 9.7 r[9] + 2.7 r[10] + 1.4 r[11] + 2.7 r[12] + 6.3 r[13] + 6.8 r[14]
   + 2.8 r[15] + 2.8 r[16] + 9.1 r[17] + 1.2 r[18] + 9.7 r[19] + 8.4 r[20]
   + 6.7 r[21] + 1.5 r[22] + 3.4 r[23] + 4.4 r[24] + 9.9 r[25] + 8.1 r[26]
   + 4.3 r[27] + 2.9 r[28] + 7.8 r[29] + 9.3 r[30] + 2.7 r[31] + 5.1 r[32]
   + 2.8 r[33] + 1.1 r[34] + 4.4 r[35] + 5.1 r[36] + 5.2 r[37] + 2.3 r[38]
   + 4.6 r[39] + 3.4 r[40] + 4.5 r[41] + 4.9 r[42] + 4.9 r[43] + 2.6 r[44]
   + 3.8 r[45] + 9.3 r[46] + 4.5 r[47] + 5.4 r[48] + 1.1 r[49] + 4.2 r[50]
   + 7.5 r[51] + 7.6 r[52] + 9.1 r[53] + 2.8 r[54] + 7.9 r[55] + 3.2 r[56]
   + 7.8 r[57] + 6.7 r[58] + 4.5 r[59] + 1.6 r[60] + 7.4 r[61] + 5.1 r[62]
   + 3.8 r[63] + 5.5 r[64] + 7.5 r[65] + 6.4 r[66] + 9 r[67] + 0.3 r[68]
   + 7.7 r[69] + 7.7 r[70] + 9.7 r[71] + 0.5 r[72] + 1.8 r[73] + 5.1 r[74]
   + 6 r[75] + 1.8 r[76] + 5 r[77] + 8 r[78] + 1.8 r[79] + 6.1 r[80]
   + 7.7 r[81] + 2.6 r[82] + 6.5 r[83] + 7.7 r[84] + 6.5 r[85] + 3.9 r[86]
   + 3.1 r[87] + 0.5 r[88] + 3 r[89] + 1.6 r[90] + 7.2 r[91] + 1.6 r[92]
   + 5.1 r[93] + 0.3 r[94] + 5.6 r[95] + 10 r[96] + 2.8 r[97] + 5.5 r[98]
   + 0.3 r[99] + 0.8 r[100] + 6.3 r[101] + 0.5 r[102] + 3.1 r[103]
   + 8.4 r[104] + 1.7 r[105] + 3.4 r[106] + 4.6 r[107] + 9 r[108]
   + 5.2 r[109] + 1.4 r[110] + 8.6 r[111] + 9.2 r[112] + 2.4 r[113]
   + 7.2 r[114] + 8.6 r[115] + 3.8 r[116] + 1.6 r[117] + 5.2 r[118]
   + 5.2 r[119] + 0.7 r[120] + 2.8 r[121] + 9.5 r[122] + 7.8 r[123]
   + 4 r[124] + 2.2 r[125] + 5.1 r[126] + 9.9 r[127] + 0.6 r[128]
   + 8.6 r[129] <= 606
 primal_lower: 1.356625555432716 x[0] + 0.1153491031216635 x[1]
   + 3.663532416957758 x[2] + 0.2634798201246842 x[3]
   + 1.130756626325367 x[4] + 1.775617627493157 x[5]
   + 3.641031241023851 x[6] + 2.177212410345562 x[7]
   + 3.64967125383583 x[8] + 3.295912238654474 x[9]
   + 2.319869015936272 x[10] + 0.5290734951897389 x[11]
   + 3.783828180356987 x[12] + 2.161000034285964 x[13]
   + 1.113587140577445 x[14] + 4.292280441013996 x[15]
   + 1.768068054360824 x[16] + 3.053196680212197 x[17]
   + 3.875798688966301 x[18] + 2.555993469984174 x[19]
   + 1.287538549630033 x[20] + 0.0904998570059609 x[21]
   + 0.3289588839747125 x[22] + 3.482020157171519 x[23]
   + 3.559055339163672 x[24] + 0.1552350029455341 x[25]
   + 2.876486834664536 x[26] + 1.728079999509555 x[27]
   + 2.819617709277713 x[28] + 2.728664780491699 x[29]
   + 0.055600303574848 x[30] + 4.021473854206326 x[31]
   + 4.183141281894963 x[32] + 3.259104617959744 x[33]
   + 2.774732850148635 x[34] + 2.399729024039215 x[35]
   + 3.432063336188607 x[36] + 0.4989492858040368 x[37]
   + 0.5187177518029225 x[38] + 2.546224181795057 x[39]
   + 0.515069647252491 x[40] + 1.729781347968039 x[41]
   + 1.120630560471236 x[42] + 0.0662807254072361 x[43]
   + 2.550747872009242 x[44] + 4.694767356942033 x[45]
   + 1.121222022890021 x[46] + 3.149227705873402 x[47]
   + 1.804069585467483 x[48] + 0.727552106201902 x[49]
   + 4.245420786714904 x[50] + 1.860075156837145 x[51]
   + 1.710046034055138 x[52] + 2.42942919979121 x[53]
   + 4.532034476750584 x[54] + 3.43735161144907 x[55]
   + 3.473321762149472 x[56] + 4.237344169023773 x[57]
   + 1.189442638632269 x[58] + 0.322900871907599 x[59]
   + 3.149550321524777 x[60] + 3.990860973738168 x[61]
   + 4.188571480543033 x[62] + 3.719010993030974 x[63]
   + 4.024806379925332 x[64] + 2.001182301717631 x[65]
   + 0.6574617778191602 x[66] + 2.828572463644633 x[67]
   + 4.753678309453712 x[68] + 1.978691194783258 x[69]
   + 2.694737251963447 x[70] + 4.165619300960338 x[71]
   + 3.991074659710421 x[72] + 3.327033477779052 x[73]
   + 4.781233013948775 x[74] + 3.215467591209606 x[75]
   + 1.338682690004855 x[76] + 3.59318892662843 x[77]
   + 3.589293993620252 x[78] + 0.9133815599776124 x[79]
   + 2.116087434510717 x[80] + 4.89381064682247 x[81]
   + 2.303023036522112 x[82] + 0.0327463188835059 x[83]
   + 0.0621980793736388 x[84] + 2.852170615924813 x[85]
   + 1.160412296320481 x[86] + 1.117337606484174 x[87]
   + 4.432795213607261 x[88] + 1.600912117059353 x[89]
   + 2.178863497831736 x[90] + 3.846072332693432 x[91]
   + 3.357252761914976 x[92] + 2.305350238672036 x[93]
   + 1.913045931844436 x[94] + 3.368326942876365 x[95]
   + 3.649516356563085 x[96] + 3.658144123826196 x[97]
   + 3.263753634691534 x[98] + 4.927517578616871 x[99]
   + 0.3214517821455187 x[100] + 3.248177547665029 x[101]
   + 0.6355817546872996 x[102] + 3.584927375795979 x[103]
   + 4.889708122248775 x[104] + 0.5529603918154981 x[105]
   + 1.495452224101293 x[106] + 2.51092466377865 x[107]
   + 0.6535008882322239 x[108] + 2.514869475921233 x[109]
   + 0.1840298996233022 x[110] + 2.289175389276821 x[111]
   + 2.982087802820634 x[112] + 2.573535423895149 x[113]
   + 2.130577641266249 x[114] + 4.389250568769618 x[115]
   + 3.555402300566236 x[116] + 2.17000527679104 x[117]
   + 3.880636035751218 x[118] + 4.126458198971322 x[119]
   + 4.490913143132889 x[120] + 3.176266670446245 x[121]
   + 1.005588517090726 x[122] + 4.883215028226469 x[123]
   + 2.092468415469614 x[124] + 3.123862166352664 x[125]
   + 2.493579739083128 x[126] + 0.7279952417188298 x[127]
   + 2.10301376592819 x[128] + 2.385084694354297 x[129] + 100 u[0]
   + 65 u[1] + 95 u[2] + 12 u[3] + 49 u[4] + 90 u[5] + 54 u[6] + 92 u[7]
   + 50 u[8] + 67 u[9] + 4 u[10] + 40 u[11] + 25 u[12] + 81 u[13]
   + 49 u[14] + 29 u[15] + 78 u[16] + 13 u[17] + 66 u[18] + 35 u[19]
   + 26 u[20] + 52 u[21] + 89 u[22] + 91 u[23] + 81 u[24] + 41 u[25]
   + 67 u[26] + 48 u[27] + 58 u[28] + 12 u[29] + 98 u[30] + 56 u[31]
   + 52 u[32] + 66 u[33] + 5 u[34] + 10 u[35] + 69 u[36] + 77 u[37]
   + 29 u[38] + 59 u[39] + 76 u[40] + 86 u[41] + 43 u[42] + 46 u[43]
   + 16 u[44] + 63 u[45] + 66 u[46] + 6 u[47] + 60 u[48] + 93 u[49]
   + 15 u[50] + 53 u[51] + 38 u[52] + 97 u[53] + 21 u[54] + 92 u[55]
   + 2 u[56] + 63 u[57] + 5 u[58] + 87 u[59] + 41 u[60] + 15 u[61]
   + 76 u[62] + 7 u[63] + 76 u[64] + 49 u[65] + 25 u[66] + 99 u[67]
   + 17 u[68] + 98 u[69] + 90 u[70] + 66 u[71] + 91 u[72] + 92 u[73]
   + 80 u[74] + 81 u[75] + 15 u[76] + 80 u[77] + 5 u[78] + 3 u[79]
   + 26 u[80] + 10 u[81] + 59 u[82] + 94 u[83] + 94 u[84] + 82 u[85]
   + 76 u[86] + 57 u[87] + 71 u[88] + 16 u[89] + 33 u[90] + 37 u[91]
   + 49 u[92] + 32 u[93] + 41 u[94] + 86 u[95] + 14 u[96] + 41 u[97]
   + 37 u[98] + 53 u[99] + 14 u[100] + 21 u[101] + 79 u[102] + 93 u[103]
   + 26 u[104] + 23 u[105] + 16 u[106] + 31 u[107] + 35 u[108] + 90 u[109]
   + 39 u[110] + 64 u[111] + 22 u[112] + 82 u[113] + 34 u[114] + 43 u[115]
   + 68 u[116] + 58 u[117] + 58 u[118] + 41 u[119] + 56 u[120] + 17 u[121]
   + 84 u[122] + 31 u[123] + 10 u[124] + 51 u[125] + 28 u[126] + 100 u[127]
   + 67 u[128] + 40 u[129] <= 37175
 mccormick1[0]: - u[0] + r[0] <= 0
 mccormick1[1]: - u[1] + r[1] <= 0
 mccormick1[2]: - u[2] + r[2] <= 0
 mccormick1[3]: - u[3] + r[3] <= 0
 mccormick1[4]: - u[4] + r[4] <= 0
 mccormick1[5]: - u[5] + r[5] <= 0
 mccormick1[6]: - u[6] + r[6] <= 0
 mccormick1[7]: - u[7] + r[7] <= 0
 mccormick1[8]: - u[8] + r[8] <= 0
 mccormick1[9]: - u[9] + r[9] <= 0
 mccormick1[10]: - u[10] + r[10] <= 0
 mccormick1[11]: - u[11] + r[11] <= 0
 mccormick1[12]: - u[12] + r[12] <= 0
 mccormick1[13]: - u[13] + r[13] <= 0
 mccormick1[14]: - u[14] + r[14] <= 0
 mccormick1[15]: - u[15] + r[15] <= 0
 mccormick1[16]: - u[16] + r[16] <= 0
 mccormick1[17]: - u[17] + r[17] <= 0
 mccormick1[18]: - u[18] + r[18] <= 0
 mccormick1[19]: - u[19] + r[19] <= 0
 mccormick1[20]: - u[20] + r[20] <= 0
 mccormick1[21]: - u[21] + r[21] <= 0
 mccormick1[22]: - u[22] + r[22] <= 0
 mccormick1[23]: - u[23] + r[23] <= 0
 mccormick1[24]: - u[24] + r[24] <= 0
 mccormick1[25]: - u[25] + r[25] <= 0
 mccormick1[26]: - u[26] + r[26] <= 0
 mccormick1[27]: - u[27] + r[27] <= 0
 mccormick1[28]: - u[28] + r[28] <= 0
 mccormick1[29]: - u[29] + r[29] <= 0
 mccormick1[30]: - u[30] + r[30] <= 0
 mccormick1[31]: - u[31] + r[31] <= 0
 mccormick1[32]: - u[32] + r[32] <= 0
 mccormick1[33]: - u[33] + r[33] <= 0
 mccormick1[34]: - u[34] + r[34] <= 0
 mccormick1[35]: - u[35] + r[35] <= 0
 mccormick1[36]: - u[36] + r[36] <= 0
 mccormick1[37]: - u[37] + r[37] <= 0
 mccormick1[38]: - u[38] + r[38] <= 0
 mccormick1[39]: - u[39] + r[39] <= 0
 mccormick1[40]: - u[40] + r[40] <= 0
 mccormick1[41]: - u[41] + r[41] <= 0
 mccormick1[42]: - u[42] + r[42] <= 0
 mccormick1[43]: - u[43] + r[43] <= 0
 mccormick1[44]: - u[44] + r[44] <= 0
 mccormick1[45]: - u[45] + r[45] <= 0
 mccormick1[46]: - u[46] + r[46] <= 0
 mccormick1[47]: - u[47] + r[47] <= 0
 mccormick1[48]: - u[48] + r[48] <= 0
 mccormick1[49]: - u[49] + r[49] <= 0
 mccormick1[50]: - u[50] + r[50] <= 0
 mccormick1[51]: - u[51] + r[51] <= 0
 mccormick1[52]: - u[52] + r[52] <= 0
 mccormick1[53]: - u[53] + r[53] <= 0
 mccormick1[54]: - u[54] + r[54] <= 0
 mccormick1[55]: - u[55] + r[55] <= 0
 mccormick1[56]: - u[56] + r[56] <= 0
 mccormick1[57]: - u[57] + r[57] <= 0
 mccormick1[58]: - u[58] + r[58] <= 0
 mccormick1[59]: - u[59] + r[59] <= 0
 mccormick1[60]: - u[60] + r[60] <= 0
 mccormick1[61]: - u[61] + r[61] <= 0
 mccormick1[62]: - u[62] + r[62] <= 0
 mccormick1[63]: - u[63] + r[63] <= 0
 mccormick1[64]: - u[64] + r[64] <= 0
 mccormick1[65]: - u[65] + r[65] <= 0
 mccormick1[66]: - u[66] + r[66] <= 0
 mccormick1[67]: - u[67] + r[67] <= 0
 mccormick1[68]: - u[68] + r[68] <= 0
 mccormick1[69]: - u[69] + r[69] <= 0
 mccormick1[70]: - u[70] + r[70] <= 0
 mccormick1[71]: - u[71] + r[71] <= 0
 mccormick1[72]: - u[72] + r[72] <= 0
 mccormick1[73]: - u[73] + r[73] <= 0
 mccormick1[74]: - u[74] + r[74] <= 0
 mccormick1[75]: - u[75] + r[75] <= 0
 mccormick1[76]: - u[76] + r[76] <= 0
 mccormick1[77]: - u[77] + r[77] <= 0
 mccormick1[78]: - u[78] + r[78] <= 0
 mccormick1[79]: - u[79] + r[79] <= 0
 mccormick1[80]: - u[80] + r[80] <= 0
 mccormick1[81]: - u[81] + r[81] <= 0
 mccormick1[82]: - u[82] + r[82] <= 0
 mccormick1[83]: - u[83] + r[83] <= 0
 mccormick1[84]: - u[84] + r[84] <= 0
 mccormick1[85]: - u[85] + r[85] <= 0
 mccormick1[86]: - u[86] + r[86] <= 0
 mccormick1[87]: - u[87] + r[87] <= 0
 mccormick1[88]: - u[88] + r[88] <= 0
 mccormick1[89]: - u[89] + r[89] <= 0
 mccormick1[90]: - u[90] + r[90] <= 0
 mccormick1[91]: - u[91] + r[91] <= 0
 mccormick1[92]: - u[92] + r[92] <= 0
 mccormick1[93]: - u[93] + r[93] <= 0
 mccormick1[94]: - u[94] + r[94] <= 0
 mccormick1[95]: - u[95] + r[95] <= 0
 mccormick1[96]: - u[96] + r[96] <= 0
 mccormick1[97]: - u[97] + r[97] <= 0
 mccormick1[98]: - u[98] + r[98] <= 0
 mccormick1[99]: - u[99] + r[99] <= 0
 mccormick1[100]: - u[100] + r[100] <= 0
 mccormick1[101]: - u[101] + r[101] <= 0
 mccormick1[102]: - u[102] + r[102] <= 0
 mccormick1[103]: - u[103] + r[103] <= 0
 mccormick1[104]: - u[104] + r[104] <= 0
 mccormick1[105]: - u[105] + r[105] <= 0
 mccormick1[106]: - u[106] + r[106] <= 0
 mccormick1[107]: - u[107] + r[107] <= 0
 mccormick1[108]: - u[108] + r[108] <= 0
 mccormick1[109]: - u[109] + r[109] <= 0
 mccormick1[110]: - u[110] + r[110] <= 0
 mccormick1[111]: - u[111] + r[111] <= 0
 mccormick1[112]: - u[112] + r[112] <= 0
 mccormick1[113]: - u[113] + r[113] <= 0
 mccormick1[114]: - u[114] + r[114] <= 0
 mccormick1[115]: - u[115] + r[115] <= 0
 mccormick1[116]: - u[116] + r[116] <= 0
 mccormick1[117]: - u[117] + r[117] <= 0
 mccormick1[118]: - u[118] + r[118] <= 0
 mccormick1[119]: - u[119] + r[119] <= 0
 mccormick1[120]: - u[120] + r[120] <= 0
 mccormick1[121]: - u[121] + r[121] <= 0
 mccormick1[122]: - u[122] + r[122] <= 0
 mccormick1[123]: - u[123] + r[123] <= 0
 mccormick1[124]: - u[124] + r[124] <= 0
 mccormick1[125]: - u[125] + r[125] <= 0
 mccormick1[126]: - u[126] + r[126] <= 0
 mccormick1[127]: - u[127] + r[127] <= 0
 mccormick1[128]: - u[128] + r[128] <= 0
 mccormick1[129]: - u[129] + r[129] <= 0
 mccormick2[0]: - x[0] + r[0] <= 0
 mccormick2[1]: - x[1] + r[1] <= 0
 mccormick2[2]: - x[2] + r[2] <= 0
 mccormick2[3]: - x[3] + r[3] <= 0
 mccormick2[4]: - x[4] + r[4] <= 0
 mccormick2[5]: - x[5] + r[5] <= 0
 mccormick2[6]: - x[6] + r[6] <= 0
 mccormick2[7]: - x[7] + r[7] <= 0
 mccormick2[8]: - x[8] + r[8] <= 0
 mccormick2[9]: - x[9] + r[9] <= 0
 mccormick2[10]: - x[10] + r[10] <= 0
 mccormick2[11]: - x[11] + r[11] <= 0
 mccormick2[12]: - x[12] + r[12] <= 0
 mccormick2[13]: - x[13] + r[13] <= 0
 mccormick2[14]: - x[14] + r[14] <= 0
 mccormick2[15]: - x[15] + r[15] <= 0
 mccormick2[16]: - x[16] + r[16] <= 0
 mccormick2[17]: - x[17] + r[17] <= 0
 mccormick2[18]: - x[18] + r[18] <= 0
 mccormick2[19]: - x[19] + r[19] <= 0
 mccormick2[20]: - x[20] + r[20] <= 0
 mccormick2[21]: - x[21] + r[21] <= 0
 mccormick2[22]: - x[22] + r[22] <= 0
 mccormick2[23]: - x[23] + r[23] <= 0
 mccormick2[24]: - x[24] + r[24] <= 0
 mccormick2[25]: - x[25] + r[25] <= 0
 mccormick2[26]: - x[26] + r[26] <= 0
 mccormick2[27]: - x[27] + r[27] <= 0
 mccormick2[28]: - x[28] + r[28] <= 0
 mccormick2[29]: - x[29] + r[29] <= 0
 mccormick2[30]: - x[30] + r[30] <= 0
 mccormick2[31]: - x[31] + r[31] <= 0
 mccormick2[32]: - x[32] + r[32] <= 0
 mccormick2[33]: - x[33] + r[33] <= 0
 mccormick2[34]: - x[34] + r[34] <= 0
 mccormick2[35]: - x[35] + r[35] <= 0
 mccormick2[36]: - x[36] + r[36] <= 0
 mccormick2[37]: - x[37] + r[37] <= 0
 mccormick2[38]: - x[38] + r[38] <= 0
 mccormick2[39]: - x[39] + r[39] <= 0
 mccormick2[40]: - x[40] + r[40] <= 0
 mccormick2[41]: - x[41] + r[41] <= 0
 mccormick2[42]: - x[42] + r[42] <= 0
 mccormick2[43]: - x[43] + r[43] <= 0
 mccormick2[44]: - x[44] + r[44] <= 0
 mccormick2[45]: - x[45] + r[45] <= 0
 mccormick2[46]: - x[46] + r[46] <= 0
 mccormick2[47]: - x[47] + r[47] <= 0
 mccormick2[48]: - x[48] + r[48] <= 0
 mccormick2[49]: - x[49] + r[49] <= 0
 mccormick2[50]: - x[50] + r[50] <= 0
 mccormick2[51]: - x[51] + r[51] <= 0
 mccormick2[52]: - x[52] + r[52] <= 0
 mccormick2[53]: - x[53] + r[53] <= 0
 mccormick2[54]: - x[54] + r[54] <= 0
 mccormick2[55]: - x[55] + r[55] <= 0
 mccormick2[56]: - x[56] + r[56] <= 0
 mccormick2[57]: - x[57] + r[57] <= 0
 mccormick2[58]: - x[58] + r[58] <= 0
 mccormick2[59]: - x[59] + r[59] <= 0
 mccormick2[60]: - x[60] + r[60] <= 0
 mccormick2[61]: - x[61] + r[61] <= 0
 mccormick2[62]: - x[62] + r[62] <= 0
 mccormick2[63]: - x[63] + r[63] <= 0
 mccormick2[64]: - x[64] + r[64] <= 0
 mccormick2[65]: - x[65] + r[65] <= 0
 mccormick2[66]: - x[66] + r[66] <= 0
 mccormick2[67]: - x[67] + r[67] <= 0
 mccormick2[68]: - x[68] + r[68] <= 0
 mccormick2[69]: - x[69] + r[69] <= 0
 mccormick2[70]: - x[70] + r[70] <= 0
 mccormick2[71]: - x[71] + r[71] <= 0
 mccormick2[72]: - x[72] + r[72] <= 0
 mccormick2[73]: - x[73] + r[73] <= 0
 mccormick2[74]: - x[74] + r[74] <= 0
 mccormick2[75]: - x[75] + r[75] <= 0
 mccormick2[76]: - x[76] + r[76] <= 0
 mccormick2[77]: - x[77] + r[77] <= 0
 mccormick2[78]: - x[78] + r[78] <= 0
 mccormick2[79]: - x[79] + r[79] <= 0
 mccormick2[80]: - x[80] + r[80] <= 0
 mccormick2[81]: - x[81] + r[81] <= 0
 mccormick2[82]: - x[82] + r[82] <= 0
 mccormick2[83]: - x[83] + r[83] <= 0
 mccormick2[84]: - x[84] + r[84] <= 0
 mccormick2[85]: - x[85] + r[85] <= 0
 mccormick2[86]: - x[86] + r[86] <= 0
 mccormick2[87]: - x[87] + r[87] <= 0
 mccormick2[88]: - x[88] + r[88] <= 0
 mccormick2[89]: - x[89] + r[89] <= 0
 mccormick2[90]: - x[90] + r[90] <= 0
 mccormick2[91]: - x[91] + r[91] <= 0
 mccormick2[92]: - x[92] + r[92] <= 0
 mccormick2[93]: - x[93] + r[93] <= 0
 mccormick2[94]: - x[94] + r[94] <= 0
 mccormick2[95]: - x[95] + r[95] <= 0
 mccormick2[96]: - x[96] + r[96] <= 0
 mccormick2[97]: - x[97] + r[97] <= 0
 mccormick2[98]: - x[98] + r[98] <= 0
 mccormick2[99]: - x[99] + r[99] <= 0
 mccormick2[100]: - x[100] + r[100] <= 0
 mccormick2[101]: - x[101] + r[101] <= 0
 mccormick2[102]: - x[102] + r[102] <= 0
 mccormick2[103]: - x[103] + r[103] <= 0
 mccormick2[104]: - x[104] + r[104] <= 0
 mccormick2[105]: - x[105] + r[105] <= 0
 mccormick2[106]: - x[106] + r[106] <= 0
 mccormick2[107]: - x[107] + r[107] <= 0
 mccormick2[108]: - x[108] + r[108] <= 0
 mccormick2[109]: - x[109] + r[109] <= 0
 mccormick2[110]: - x[110] + r[110] <= 0
 mccormick2[111]: - x[111] + r[111] <= 0
 mccormick2[112]: - x[112] + r[112] <= 0
 mccormick2[113]: - x[113] + r[113] <= 0
 mccormick2[114]: - x[114] + r[114] <= 0
 mccormick2[115]: - x[115] + r[115] <= 0
 mccormick2[116]: - x[116] + r[116] <= 0
 mccormick2[117]: - x[117] + r[117] <= 0
 mccormick2[118]: - x[118] + r[118] <= 0
 mccormick2[119]: - x[119] + r[119] <= 0
 mccormick2[120]: - x[120] + r[120] <= 0
 mccormick2[121]: - x[121] + r[121] <= 0
 mccormick2[122]: - x[122] + r[122] <= 0
 mccormick2[123]: - x[123] + r[123] <= 0
 mccormick2[124]: - x[124] + r[124] <= 0
 mccormick2[125]: - x[125] + r[125] <= 0
 mccormick2[126]: - x[126] + r[126] <= 0
 mccormick2[127]: - x[127] + r[127] <= 0
 mccormick2[128]: - x[128] + r[128] <= 0
 mccormick2[129]: - x[129] + r[129] <= 0
 mccormick3[0]: x[0] + u[0] - r[0] <= 1
 mccormick3[1]: x[1] + u[1] - r[1] <= 1
 mccormick3[2]: x[2] + u[2] - r[2] <= 1
 mccormick3[3]: x[3] + u[3] - r[3] <= 1
 mccormick3[4]: x[4] + u[4] - r[4] <= 1
 mccormick3[5]: x[5] + u[5] - r[5] <= 1
 mccormick3[6]: x[6] + u[6] - r[6] <= 1
 mccormick3[7]: x[7] + u[7] - r[7] <= 1
 mccormick3[8]: x[8] + u[8] - r[8] <= 1
 mccormick3[9]: x[9] + u[9] - r[9] <= 1
 mccormick3[10]: x[10] + u[10] - r[10] <= 1
 mccormick3[11]: x[11] + u[11] - r[11] <= 1
 mccormick3[12]: x[12] + u[12] - r[12] <= 1
 mccormick3[13]: x[13] + u[13] - r[13] <= 1
 mccormick3[14]: x[14] + u[14] - r[14] <= 1
 mccormick3[15]: x[15] + u[15] - r[15] <= 1
 mccormick3[16]: x[16] + u[16] - r[16] <= 1
 mccormick3[17]: x[17] + u[17] - r[17] <= 1
 mccormick3[18]: x[18] + u[18] - r[18] <= 1
 mccormick3[19]: x[19] + u[19] - r[19] <= 1
 mccormick3[20]: x[20] + u[20] - r[20] <= 1
 mccormick3[21]: x[21] + u[21] - r[21] <= 1
 mccormick3[22]: x[22] + u[22] - r[22] <= 1
 mccormick3[23]: x[23] + u[23] - r[23] <= 1
 mccormick3[24]: x[24] + u[24] - r[24] <= 1
 mccormick3[25]: x[25] + u[25] - r[25] <= 1
 mccormick3[26]: x[26] + u[26] - r[26] <= 1
 mccormick3[27]: x[27] + u[27] - r[27] <= 1
 mccormick3[28]: x[28] + u[28] - r[28] <= 1
 mccormick3[29]: x[29] + u[29] - r[29] <= 1
 mccormick3[30]: x[30] + u[30] - r[30] <= 1
 mccormick3[31]: x[31] + u[31] - r[31] <= 1
 mccormick3[32]: x[32] + u[32] - r[32] <= 1
 mccormick3[33]: x[33] + u[33] - r[33] <= 1
 mccormick3[34]: x[34] + u[34] - r[34] <= 1
 mccormick3[35]: x[35] + u[35] - r[35] <= 1
 mccormick3[36]: x[36] + u[36] - r[36] <= 1
 mccormick3[37]: x[37] + u[37] - r[37] <= 1
 mccormick3[38]: x[38] + u[38] - r[38] <= 1
 mccormick3[39]: x[39] + u[39] - r[39] <= 1
 mccormick3[40]: x[40] + u[40] - r[40] <= 1
 mccormick3[41]: x[41] + u[41] - r[41] <= 1
 mccormick3[42]: x[42] + u[42] - r[42] <= 1
 mccormick3[43]: x[43] + u[43] - r[43] <= 1
 mccormick3[44]: x[44] + u[44] - r[44] <= 1
 mccormick3[45]: x[45] + u[45] - r[45] <= 1
 mccormick3[46]: x[46] + u[46] - r[46] <= 1
 mccormick3[47]: x[47] + u[47] - r[47] <= 1
 mccormick3[48]: x[48] + u[48] - r[48] <= 1
 mccormick3[49]: x[49] + u[49] - r[49] <= 1
 mccormick3[50]: x[50] + u[50] - r[50] <= 1
 mccormick3[51]: x[51] + u[51] - r[51] <= 1
 mccormick3[52]: x[52] + u[52] - r[52] <= 1
 mccormick3[53]: x[53] + u[53] - r[53] <= 1
 mccormick3[54]: x[54] + u[54] - r[54] <= 1
 mccormick3[55]: x[55] + u[55] - r[55] <= 1
 mccormick3[56]: x[56] + u[56] - r[56] <= 1
 mccormick3[57]: x[57] + u[57] - r[57] <= 1
 mccormick3[58]: x[58] + u[58] - r[58] <= 1
 mccormick3[59]: x[59] + u[59] - r[59] <= 1
 mccormick3[60]: x[60] + u[60] - r[60] <= 1
 mccormick3[61]: x[61] + u[61] - r[61] <= 1
 mccormick3[62]: x[62] + u[62] - r[62] <= 1
 mccormick3[63]: x[63] + u[63] - r[63] <= 1
 mccormick3[64]: x[64] + u[64] - r[64] <= 1
 mccormick3[65]: x[65] + u[65] - r[65] <= 1
 mccormick3[66]: x[66] + u[66] - r[66] <= 1
 mccormick3[67]: x[67] + u[67] - r[67] <= 1
 mccormick3[68]: x[68] + u[68] - r[68] <= 1
 mccormick3[69]: x[69] + u[69] - r[69] <= 1
 mccormick3[70]: x[70] + u[70] - r[70] <= 1
 mccormick3[71]: x[71] + u[71] - r[71] <= 1
 mccormick3[72]: x[72] + u[72] - r[72] <= 1
 mccormick3[73]: x[73] + u[73] - r[73] <= 1
 mccormick3[74]: x[74] + u[74] - r[74] <= 1
 mccormick3[75]: x[75] + u[75] - r[75] <= 1
 mccormick3[76]: x[76] + u[76] - r[76] <= 1
 mccormick3[77]: x[77] + u[77] - r[77] <= 1
 mccormick3[78]: x[78] + u[78] - r[78] <= 1
 mccormick3[79]: x[79] + u[79] - r[79] <= 1
 mccormick3[80]: x[80] + u[80] - r[80] <= 1
 mccormick3[81]: x[81] + u[81] - r[81] <= 1
 mccormick3[82]: x[82] + u[82] - r[82] <= 1
 mccormick3[83]: x[83] + u[83] - r[83] <= 1
 mccormick3[84]: x[84] + u[84] - r[84] <= 1
 mccormick3[85]: x[85] + u[85] - r[85] <= 1
 mccormick3[86]: x[86] + u[86] - r[86] <= 1
 mccormick3[87]: x[87] + u[87] - r[87] <= 1
 mccormick3[88]: x[88] + u[88] - r[88] <= 1
 mccormick3[89]: x[89] + u[89] - r[89] <= 1
 mccormick3[90]: x[90] + u[90] - r[90] <= 1
 mccormick3[91]: x[91] + u[91] - r[91] <= 1
 mccormick3[92]: x[92] + u[92] - r[92] <= 1
 mccormick3[93]: x[93] + u[93] - r[93] <= 1
 mccormick3[94]: x[94] + u[94] - r[94] <= 1
 mccormick3[95]: x[95] + u[95] - r[95] <= 1
 mccormick3[96]: x[96] + u[96] - r[96] <= 1
 mccormick3[97]: x[97] + u[97] - r[97] <= 1
 mccormick3[98]: x[98] + u[98] - r[98] <= 1
 mccormick3[99]: x[99] + u[99] - r[99] <= 1
 mccormick3[100]: x[100] + u[100] - r[100] <= 1
 mccormick3[101]: x[101] + u[101] - r[101] <= 1
 mccormick3[102]: x[102] + u[102] - r[102] <= 1
 mccormick3[103]: x[103] + u[103] - r[103] <= 1
 mccormick3[104]: x[104] + u[104] - r[104] <= 1
 mccormick3[105]: x[105] + u[105] - r[105] <= 1
 mccormick3[106]: x[106] + u[106] - r[106] <= 1
 mccormick3[107]: x[107] + u[107] - r[107] <= 1
 mccormick3[108]: x[108] + u[108] - r[108] <= 1
 mccormick3[109]: x[109] + u[109] - r[109] <= 1
 mccormick3[110]: x[110] + u[110] - r[110] <= 1
 mccormick3[111]: x[111] + u[111] - r[111] <= 1
 mccormick3[112]: x[112] + u[112] - r[112] <= 1
 mccormick3[113]: x[113] + u[113] - r[113] <= 1
 mccormick3[114]: x[114] + u[114] - r[114] <= 1
 mccormick3[115]: x[115] + u[115] - r[115] <= 1
 mccormick3[116]: x[116] + u[116] - r[116] <= 1
 mccormick3[117]: x[117] + u[117] - r[117] <= 1
 mccormick3[118]: x[118] + u[118] - r[118] <= 1
 mccormick3[119]: x[119] + u[119] - r[119] <= 1
 mccormick3[120]: x[120] + u[120] - r[120] <= 1
 mccormick3[121]: x[121] + u[121] - r[121] <= 1
 mccormick3[122]: x[122] + u[122] - r[122] <= 1
 mccormick3[123]: x[123] + u[123] - r[123] <= 1
 mccormick3[124]: x[124] + u[124] - r[124] <= 1
 mccormick3[125]: x[125] + u[125] - r[125] <= 1
 mccormick3[126]: x[126] + u[126] - r[126] <= 1
 mccormick3[127]: x[127] + u[127] - r[127] <= 1
 mccormick3[128]: x[128] + u[128] - r[128] <= 1
 mccormick3[129]: x[129] + u[129] - r[129] <= 1
Bounds
Binaries
 x[0] x[1] x[2] x[3] x[4] x[5] x[6] x[7] x[8] x[9] x[10] x[11] x[12] x[13]
 x[14] x[15] x[16] x[17] x[18] x[19] x[20] x[21] x[22] x[23] x[24] x[25]
 x[26] x[27] x[28] x[29] x[30] x[31] x[32] x[33] x[34] x[35] x[36] x[37]
 x[38] x[39] x[40] x[41] x[42] x[43] x[44] x[45] x[46] x[47] x[48] x[49]
 x[50] x[51] x[52] x[53] x[54] x[55] x[56] x[57] x[58] x[59] x[60] x[61]
 x[62] x[63] x[64] x[65] x[66] x[67] x[68] x[69] x[70] x[71] x[72] x[73]
 x[74] x[75] x[76] x[77] x[78] x[79] x[80] x[81] x[82] x[83] x[84] x[85]
 x[86] x[87] x[88] x[89] x[90] x[91] x[92] x[93] x[94] x[95] x[96] x[97]
 x[98] x[99] x[100] x[101] x[102] x[103] x[104] x[105] x[106] x[107] x[108]
 x[109] x[110] x[111] x[112] x[113] x[114] x[115] x[116] x[117] x[118]
 x[119] x[120] x[121] x[122] x[123] x[124] x[125] x[126] x[127] x[128]
 x[129] u[0] u[1] u[2] u[3] u[4] u[5] u[6] u[7] u[8] u[9] u[10] u[11] u[12]
 u[13] u[14] u[15] u[16] u[17] u[18] u[19] u[20] u[21] u[22] u[23] u[24]
 u[25] u[26] u[27] u[28] u[29] u[30] u[31] u[32] u[33] u[34] u[35] u[36]
 u[37] u[38] u[39] u[40] u[41] u[42] u[43] u[44] u[45] u[46] u[47] u[48]
 u[49] u[50] u[51] u[52] u[53] u[54] u[55] u[56] u[57] u[58] u[59] u[60]
 u[61] u[62] u[63] u[64] u[65] u[66] u[67] u[68] u[69] u[70] u[71] u[72]
 u[73] u[74] u[75] u[76] u[77] u[78] u[79] u[80] u[81] u[82] u[83] u[84]
 u[85] u[86] u[87] u[88] u[89] u[90] u[91] u[92] u[93] u[94] u[95] u[96]
 u[97] u[98] u[99] u[100] u[101] u[102] u[103] u[104] u[105] u[106] u[107]
 u[108] u[109] u[110] u[111] u[112] u[113] u[114] u[115] u[116] u[117]
 u[118] u[119] u[120] u[121] u[122] u[123] u[124] u[125] u[126] u[127]
 u[128] u[129] r[0] r[1] r[2] r[3] r[4] r[5] r[6] r[7] r[8] r[9] r[10]
 r[11] r[12] r[13] r[14] r[15] r[16] r[17] r[18] r[19] r[20] r[21] r[22]
 r[23] r[24] r[25] r[26] r[27] r[28] r[29] r[30] r[31] r[32] r[33] r[34]
 r[35] r[36] r[37] r[38] r[39] r[40] r[41] r[42] r[43] r[44] r[45] r[46]
 r[47] r[48] r[49] r[50] r[51] r[52] r[53] r[54] r[55] r[56] r[57] r[58]
 r[59] r[60] r[61] r[62] r[63] r[64] r[65] r[66] r[67] r[68] r[69] r[70]
 r[71] r[72] r[73] r[74] r[75] r[76] r[77] r[78] r[79] r[80] r[81] r[82]
 r[83] r[84] r[85] r[86] r[87] r[88] r[89] r[90] r[91] r[92] r[93] r[94]
 r[95] r[96] r[97] r[98] r[99] r[100] r[101] r[102] r[103] r[104] r[105]
 r[106] r[107] r[108] r[109] r[110] r[111] r[112] r[113] r[114] r[115]
 r[116] r[117] r[118] r[119] r[120] r[121] r[122] r[123] r[124] r[125]
 r[126] r[127] r[128] r[129]
End
