instances/knapsack/discrete/knapsack_130_10.kp
57992
130
606

15 1.5 81
83 8.3 66
5 0.5 83
82 8.2 47
39 3.9 73
13 1.3 8
96 9.6 77
27 2.7 79
28 2.8 18
97 9.7 98
27 2.7 66
14 1.4 30
27 2.7 22
63 6.3 49
68 6.8 38
28 2.8 39
28 2.8 65
91 9.1 57
12 1.2 78
97 9.7 93
84 8.4 25
67 6.7 46
15 1.5 7
34 3.4 59
44 4.4 44
99 9.9 30
81 8.1 79
43 4.3 35
29 2.9 17
78 7.8 64
93 9.3 24
27 2.7 23
51 5.1 63
28 2.8 18
11 1.1 11
44 4.4 56
51 5.1 60
52 5.2 22
23 2.3 6
46 4.6 35
34 3.4 79
45 4.5 81
49 4.9 1
49 4.9 14
26 2.6 50
38 3.8 34
93 9.3 48
45 4.5 32
54 5.4 52
11 1.1 65
42 4.2 78
75 7.5 90
76 7.6 94
91 9.1 16
28 2.8 71
79 7.9 97
32 3.2 78
78 7.8 51
67 6.7 59
45 4.5 86
16 1.6 47
74 7.4 17
51 5.1 25
38 3.8 57
55 5.5 2
75 7.5 56
64 6.4 72
90 9.0 65
3 0.3 32
77 7.7 77
77 7.7 4
97 9.7 78
5 0.5 88
18 1.8 97
51 5.1 54
60 6.0 65
18 1.8 53
50 5.0 44
80 8.0 35
18 1.8 23
61 6.1 58
77 7.7 45
26 2.6 69
65 6.5 13
77 7.7 8
65 6.5 20
39 3.9 77
31 3.1 18
5 0.5 31
30 3.0 98
16 1.6 65
72 7.2 45
16 1.6 53
51 5.1 40
3 0.3 91
56 5.6 90
100 10.0 72
28 2.8 51
55 5.5 24
3 0.3 44
8 0.8 84
63 6.3 61
5 0.5 86
31 3.1 57
84 8.4 22
17 1.7 90
34 3.4 45
46 4.6 44
90 9.0 21
52 5.2 36
14 1.4 61
86 8.6 5
92 9.2 41
24 2.4 99
72 7.2 17
86 8.6 72
38 3.8 98
16 1.6 76
52 5.2 49
52 5.2 54
7 0.7 33
28 2.8 90
95 9.5 65
78 7.8 14
40 4.0 71
22 2.2 20
51 5.1 48
99 9.9 33
6 0.6 71
86 8.6 4

37175
642

[1.3566255554327156 0.11534910312166347 3.663532416957758 0.2634798201246842 1.1307566263253674 1.775617627493157 3.641031241023851 2.177212410345562 3.6496712538358302 3.2959122386544744 2.3198690159362725 0.5290734951897389 3.7838281803569873 2.1610000342859643 1.1135871405774453 4.292280441013996 1.7680680543608245 3.0531966802121966 3.8757986889663005 2.555993469984174 1.287538549630033 0.09049985700596086 0.3289588839747125 3.482020157171519 3.5590553391636717 0.1552350029455341 2.876486834664536 1.7280799995095555 2.8196177092777126 2.7286647804916995 0.05560030357484799 4.021473854206326 4.183141281894963 3.259104617959744 2.7747328501486352 2.3997290240392153 3.4320633361886075 0.4989492858040368 0.5187177518029225 2.5462241817950573 0.515069647252491 1.7297813479680393 1.120630560471236 0.06628072540723615 2.5507478720092425 4.694767356942033 1.1212220228900212 3.149227705873402 1.8040695854674829 0.727552106201902 4.245420786714904 1.8600751568371452 1.7100460340551378 2.4294291997912096 4.532034476750584 3.43735161144907 3.473321762149472 4.237344169023773 1.1894426386322685 0.32290087190759903 3.149550321524777 3.9908609737381675 4.1885714805430325 3.7190109930309743 4.024806379925332 2.001182301717631 0.6574617778191602 2.8285724636446328 4.753678309453712 1.978691194783258 2.6947372519634474 4.165619300960338 3.991074659710421 3.3270334777790516 4.781233013948775 3.215467591209606 1.3386826900048545 3.5931889266284305 3.5892939936202524 0.9133815599776124 2.1160874345107166 4.89381064682247 2.303023036522112 0.0327463188835059 0.06219807937363882 2.852170615924813 1.1604122963204815 1.1173376064841736 4.432795213607261 1.6009121170593532 2.178863497831736 3.8460723326934323 3.3572527619149763 2.305350238672036 1.9130459318444362 3.3683269428763647 3.649516356563085 3.6581441238261965 3.2637536346915343 4.927517578616871 0.3214517821455187 3.248177547665029 0.6355817546872996 3.584927375795979 4.889708122248775 0.552960391815498 1.4954522241012933 2.5109246637786504 0.6535008882322239 2.514869475921233 0.18402989962330224 2.289175389276821 2.9820878028206343 2.573535423895149 2.130577641266249 4.389250568769618 3.555402300566236 2.1700052767910405 3.8806360357512184 4.126458198971322 4.4909131431328895 3.176266670446245 1.0055885170907257 4.883215028226469 2.0924684154696136 3.1238621663526636 2.4935797390831285 0.7279952417188298 2.10301376592819 2.3850846943542967]

[100 65 95 12 49 90 54 92 50 67 4 40 25 81 49 29 78 13 66 35 26 52 89 91 81 41 67 48 58 12 98 56 52 66 5 10 69 77 29 59 76 86 43 46 16 63 66 6 60 93 15 53 38 97 21 92 2 63 5 87 41 15 76 7 76 49 25 99 17 98 90 66 91 92 80 81 15 80 5 3 26 10 59 94 94 82 76 57 71 16 33 37 49 32 41 86 14 41 37 53 14 21 79 93 26 23 16 31 35 90 39 64 22 82 34 43 68 58 58 41 56 17 84 31 10 51 28 100 67 40]
